GeneratedTests/Random_11/Random_11_1.tsp
NAME: Random_11_1
TYPE: TSP
DIMENSION: 11
EDGE_WEIGHT_TYPE: EUC_2D
NODE_COORD_SECTION
1 16.229149 15.407759
2 11.066553 14.613304
3 1.94715 13.175827
4 28.559912 23.71196
5 21.971628 23.840403
6 30.847073 32.285522
7 13.2925205 10.022718
8 28.543354 13.6214075
9 28.356312 4.141267
10 11.371297 13.968967
11 1.6644083 14.5814
EOF
