GeneratedTests/Random_11/Random_11_1.txt
NAME: Random_11_1
TYPE: TSP
DIMENSION: 11
EDGE_WEIGHT_TYPE: EUC_2D
NODE_COORD_SECTION
1 2.01952 24.686644
2 31.118694 17.860167
3 27.70491 23.980831
4 12.47355 23.526907
5 10.315919 28.52422
6 12.97379 24.488333
7 4.9798164 10.4088
8 31.100471 26.959171
9 18.868696 2.3571713
10 23.630339 8.99969
11 30.497467 7.4999084
EOF
